\Problem name: compact

Minimize
OBJROW: C
Subject To
ord(0,1):  - x(0,1) + x(0,2) >= 1
ord(0,2):  x(0,0) - x(0,2) >= 7
ord(1,1):  - x(1,0) + x(1,2) >= 8
ord(1,2):  x(1,1) - x(1,2) >= 2
ord(2,1):  - x(2,1) + x(2,2) >= 3
ord(2,2):  x(2,0) - x(2,2) >= 3
ord(3,1):  - x(3,1) + x(3,2) >= 5
ord(3,2):  x(3,0) - x(3,2) >= 9
ord(4,1):  - x(4,0) + x(4,1) >= 6
ord(4,2):  - x(4,1) + x(4,2) >= 10
triangle2(0,1,0):  y(0,1,0) + y(1,0,0) = 1
triangle2(0,1,1):  y(0,1,1) + y(1,0,1) = 1
triangle2(0,1,2):  y(0,1,2) + y(1,0,2) = 1
triangle2(0,2,0):  y(0,2,0) + y(2,0,0) = 1
triangle2(0,2,1):  y(0,2,1) + y(2,0,1) = 1
triangle2(0,2,2):  y(0,2,2) + y(2,0,2) = 1
triangle2(0,3,0):  y(0,3,0) + y(3,0,0) = 1
triangle2(0,3,1):  y(0,3,1) + y(3,0,1) = 1
triangle2(0,3,2):  y(0,3,2) + y(3,0,2) = 1
triangle2(0,4,0):  y(0,4,0) + y(4,0,0) = 1
triangle2(0,4,1):  y(0,4,1) + y(4,0,1) = 1
triangle2(0,4,2):  y(0,4,2) + y(4,0,2) = 1
triangle2(1,2,0):  y(1,2,0) + y(2,1,0) = 1
triangle2(1,2,1):  y(1,2,1) + y(2,1,1) = 1
triangle2(1,2,2):  y(1,2,2) + y(2,1,2) = 1
triangle2(1,3,0):  y(1,3,0) + y(3,1,0) = 1
triangle2(1,3,1):  y(1,3,1) + y(3,1,1) = 1
triangle2(1,3,2):  y(1,3,2) + y(3,1,2) = 1
triangle2(1,4,0):  y(1,4,0) + y(4,1,0) = 1
triangle2(1,4,1):  y(1,4,1) + y(4,1,1) = 1
triangle2(1,4,2):  y(1,4,2) + y(4,1,2) = 1
triangle2(2,3,0):  y(2,3,0) + y(3,2,0) = 1
triangle2(2,3,1):  y(2,3,1) + y(3,2,1) = 1
triangle2(2,3,2):  y(2,3,2) + y(3,2,2) = 1
triangle2(2,4,0):  y(2,4,0) + y(4,2,0) = 1
triangle2(2,4,1):  y(2,4,1) + y(4,2,1) = 1
triangle2(2,4,2):  y(2,4,2) + y(4,2,2) = 1
triangle2(3,4,0):  y(3,4,0) + y(4,3,0) = 1
triangle2(3,4,1):  y(3,4,1) + y(4,3,1) = 1
triangle2(3,4,2):  y(3,4,2) + y(4,3,2) = 1
MCLinV(0,1,0):  x(0,0) - v(0,1,0) - x(1,0) = 8
MCLinV(1,0,0):  - x(0,0) - v(1,0,0) + x(1,0) = 4
MCLin1(0,1,0):  u(0,1,0) >= -0
MCLin2(0,1,0):  -69 y(1,0,0) - u(0,1,0) <= -0
MCLin3(0,1,0):  68 y(1,0,0) + v(0,1,0) - u(0,1,0) <= 68
MCLin4(0,1,0):  68 y(1,0,0) - u(0,1,0) >= -0
MCLin5(0,1,0):  -69 y(1,0,0) + v(0,1,0) - u(0,1,0) >= -69
MCLin6(1,0,0):  u(1,0,0) >= -0
MCLin7(1,0,0):  -80 y(0,1,0) - u(1,0,0) <= -0
MCLin8(1,0,0):  57 y(0,1,0) + v(1,0,0) - u(1,0,0) <= 57
MCLin9(1,0,0):  57 y(0,1,0) - u(1,0,0) >= -0
MCLin10(1,0,0):  -80 y(0,1,0) + v(1,0,0) - u(1,0,0) >= -80
MCLinV(0,1,1):  x(0,1) - v(0,1,1) - x(1,1) = 1
MCLinV(1,0,1):  - x(0,1) - v(1,0,1) + x(1,1) = 1
MCLin1(0,1,1):  u(0,1,1) >= -0
MCLin2(0,1,1):  -80 y(1,0,1) - u(0,1,1) <= -0
MCLin3(0,1,1):  57 y(1,0,1) + v(0,1,1) - u(0,1,1) <= 57
MCLin4(0,1,1):  57 y(1,0,1) - u(0,1,1) >= -0
MCLin5(0,1,1):  -80 y(1,0,1) + v(0,1,1) - u(0,1,1) >= -80
MCLin6(1,0,1):  u(1,0,1) >= -0
MCLin7(1,0,1):  -59 y(0,1,1) - u(1,0,1) <= -0
MCLin8(1,0,1):  78 y(0,1,1) + v(1,0,1) - u(1,0,1) <= 78
MCLin9(1,0,1):  78 y(0,1,1) - u(1,0,1) >= -0
MCLin10(1,0,1):  -59 y(0,1,1) + v(1,0,1) - u(1,0,1) >= -59
MCLinV(0,1,2):  x(0,2) - v(0,1,2) - x(1,2) = 2
MCLinV(1,0,2):  - x(0,2) - v(1,0,2) + x(1,2) = 7
MCLin1(0,1,2):  u(0,1,2) >= -0
MCLin2(0,1,2):  -78 y(1,0,2) - u(0,1,2) <= -0
MCLin3(0,1,2):  59 y(1,0,2) + v(0,1,2) - u(0,1,2) <= 59
MCLin4(0,1,2):  59 y(1,0,2) - u(0,1,2) >= -0
MCLin5(0,1,2):  -78 y(1,0,2) + v(0,1,2) - u(0,1,2) >= -78
MCLin6(1,0,2):  u(1,0,2) >= -0
MCLin7(1,0,2):  -68 y(0,1,2) - u(1,0,2) <= -0
MCLin8(1,0,2):  69 y(0,1,2) + v(1,0,2) - u(1,0,2) <= 69
MCLin9(1,0,2):  69 y(0,1,2) - u(1,0,2) >= -0
MCLin10(1,0,2):  -68 y(0,1,2) + v(1,0,2) - u(1,0,2) >= -68
MCLinV(0,2,0):  x(0,0) - v(0,2,0) - x(2,0) = 5
MCLinV(2,0,0):  - x(0,0) - v(2,0,0) + x(2,0) = 4
MCLin1(0,2,0):  u(0,2,0) >= -0
MCLin2(0,2,0):  -72 y(2,0,0) - u(0,2,0) <= -0
MCLin3(0,2,0):  65 y(2,0,0) + v(0,2,0) - u(0,2,0) <= 65
MCLin4(0,2,0):  65 y(2,0,0) - u(0,2,0) >= -0
MCLin5(0,2,0):  -72 y(2,0,0) + v(0,2,0) - u(0,2,0) >= -72
MCLin6(2,0,0):  u(2,0,0) >= -0
MCLin7(2,0,0):  -74 y(0,2,0) - u(2,0,0) <= -0
MCLin8(2,0,0):  63 y(0,2,0) + v(2,0,0) - u(2,0,0) <= 63
MCLin9(2,0,0):  63 y(0,2,0) - u(2,0,0) >= -0
MCLin10(2,0,0):  -74 y(0,2,0) + v(2,0,0) - u(2,0,0) >= -74
MCLinV(0,2,1):  x(0,1) - v(0,2,1) - x(2,1) = 3
MCLinV(2,0,1):  - x(0,1) - v(2,0,1) + x(2,1) = 1
MCLin1(0,2,1):  u(0,2,1) >= -0
MCLin2(0,2,1):  -72 y(2,0,1) - u(0,2,1) <= -0
MCLin3(0,2,1):  65 y(2,0,1) + v(0,2,1) - u(0,2,1) <= 65
MCLin4(0,2,1):  65 y(2,0,1) - u(0,2,1) >= -0
MCLin5(0,2,1):  -72 y(2,0,1) + v(0,2,1) - u(0,2,1) >= -72
MCLin6(2,0,1):  u(2,0,1) >= -0
MCLin7(2,0,1):  -69 y(0,2,1) - u(2,0,1) <= -0
MCLin8(2,0,1):  68 y(0,2,1) + v(2,0,1) - u(2,0,1) <= 68
MCLin9(2,0,1):  68 y(0,2,1) - u(2,0,1) >= -0
MCLin10(2,0,1):  -69 y(0,2,1) + v(2,0,1) - u(2,0,1) >= -69
MCLinV(0,2,2):  x(0,2) - v(0,2,2) - x(2,2) = 3
MCLinV(2,0,2):  - x(0,2) - v(2,0,2) + x(2,2) = 7
MCLin1(0,2,2):  u(0,2,2) >= -0
MCLin2(0,2,2):  -74 y(2,0,2) - u(0,2,2) <= -0
MCLin3(0,2,2):  63 y(2,0,2) + v(0,2,2) - u(0,2,2) <= 63
MCLin4(0,2,2):  63 y(2,0,2) - u(0,2,2) >= -0
MCLin5(0,2,2):  -74 y(2,0,2) + v(0,2,2) - u(0,2,2) >= -74
MCLin6(2,0,2):  u(2,0,2) >= -0
MCLin7(2,0,2):  -73 y(0,2,2) - u(2,0,2) <= -0
MCLin8(2,0,2):  64 y(0,2,2) + v(2,0,2) - u(2,0,2) <= 64
MCLin9(2,0,2):  64 y(0,2,2) - u(2,0,2) >= -0
MCLin10(2,0,2):  -73 y(0,2,2) + v(2,0,2) - u(2,0,2) >= -73
MCLinV(0,3,0):  x(0,0) - v(0,3,0) - x(3,0) = 8
MCLinV(3,0,0):  - x(0,0) - v(3,0,0) + x(3,0) = 4
MCLin1(0,3,0):  u(0,3,0) >= -0
MCLin2(0,3,0):  -72 y(3,0,0) - u(0,3,0) <= -0
MCLin3(0,3,0):  54 y(3,0,0) + v(0,3,0) - u(0,3,0) <= 54
MCLin4(0,3,0):  54 y(3,0,0) - u(0,3,0) >= -0
MCLin5(0,3,0):  -72 y(3,0,0) + v(0,3,0) - u(0,3,0) >= -72
MCLin6(3,0,0):  u(3,0,0) >= -0
MCLin7(3,0,0):  -66 y(0,3,0) - u(3,0,0) <= -0
MCLin8(3,0,0):  60 y(0,3,0) + v(3,0,0) - u(3,0,0) <= 60
MCLin9(3,0,0):  60 y(0,3,0) - u(3,0,0) >= -0
MCLin10(3,0,0):  -66 y(0,3,0) + v(3,0,0) - u(3,0,0) >= -66
MCLinV(0,3,1):  x(0,1) - v(0,3,1) - x(3,1) = 5
MCLinV(3,0,1):  - x(0,1) - v(3,0,1) + x(3,1) = 1
MCLin1(0,3,1):  u(0,3,1) >= -0
MCLin2(0,3,1):  -63 y(3,0,1) - u(0,3,1) <= -0
MCLin3(0,3,1):  63 y(3,0,1) + v(0,3,1) - u(0,3,1) <= 63
MCLin4(0,3,1):  63 y(3,0,1) - u(0,3,1) >= -0
MCLin5(0,3,1):  -63 y(3,0,1) + v(0,3,1) - u(0,3,1) >= -63
MCLin6(3,0,1):  u(3,0,1) >= -0
MCLin7(3,0,1):  -69 y(0,3,1) - u(3,0,1) <= -0
MCLin8(3,0,1):  57 y(0,3,1) + v(3,0,1) - u(3,0,1) <= 57
MCLin9(3,0,1):  57 y(0,3,1) - u(3,0,1) >= -0
MCLin10(3,0,1):  -69 y(0,3,1) + v(3,0,1) - u(3,0,1) >= -69
MCLinV(0,3,2):  x(0,2) - v(0,3,2) - x(3,2) = 9
MCLinV(3,0,2):  - x(0,2) - v(3,0,2) + x(3,2) = 7
MCLin1(0,3,2):  u(0,3,2) >= -0
MCLin2(0,3,2):  -71 y(3,0,2) - u(0,3,2) <= -0
MCLin3(0,3,2):  55 y(3,0,2) + v(0,3,2) - u(0,3,2) <= 55
MCLin4(0,3,2):  55 y(3,0,2) - u(0,3,2) >= -0
MCLin5(0,3,2):  -71 y(3,0,2) + v(0,3,2) - u(0,3,2) >= -71
MCLin6(3,0,2):  u(3,0,2) >= -0
MCLin7(3,0,2):  -71 y(0,3,2) - u(3,0,2) <= -0
MCLin8(3,0,2):  55 y(0,3,2) + v(3,0,2) - u(3,0,2) <= 55
MCLin9(3,0,2):  55 y(0,3,2) - u(3,0,2) >= -0
MCLin10(3,0,2):  -71 y(0,3,2) + v(3,0,2) - u(3,0,2) >= -71
MCLinV(0,4,0):  x(0,0) - v(0,4,0) - x(4,0) = 6
MCLinV(4,0,0):  - x(0,0) - v(4,0,0) + x(4,0) = 4
MCLin1(0,4,0):  u(0,4,0) >= -0
MCLin2(0,4,0):  -54 y(4,0,0) - u(0,4,0) <= -0
MCLin3(0,4,0):  70 y(4,0,0) + v(0,4,0) - u(0,4,0) <= 70
MCLin4(0,4,0):  70 y(4,0,0) - u(0,4,0) >= -0
MCLin5(0,4,0):  -54 y(4,0,0) + v(0,4,0) - u(0,4,0) >= -54
MCLin6(4,0,0):  u(4,0,0) >= -0
MCLin7(4,0,0):  -80 y(0,4,0) - u(4,0,0) <= -0
MCLin8(4,0,0):  44 y(0,4,0) + v(4,0,0) - u(4,0,0) <= 44
MCLin9(4,0,0):  44 y(0,4,0) - u(4,0,0) >= -0
MCLin10(4,0,0):  -80 y(0,4,0) + v(4,0,0) - u(4,0,0) >= -80
MCLinV(0,4,1):  x(0,1) - v(0,4,1) - x(4,1) = 10
MCLinV(4,0,1):  - x(0,1) - v(4,0,1) + x(4,1) = 1
MCLin1(0,4,1):  u(0,4,1) >= -0
MCLin2(0,4,1):  -72 y(4,0,1) - u(0,4,1) <= -0
MCLin3(0,4,1):  52 y(4,0,1) + v(0,4,1) - u(0,4,1) <= 52
MCLin4(0,4,1):  52 y(4,0,1) - u(0,4,1) >= -0
MCLin5(0,4,1):  -72 y(4,0,1) + v(0,4,1) - u(0,4,1) >= -72
MCLin6(4,0,1):  u(4,0,1) >= -0
MCLin7(4,0,1):  -63 y(0,4,1) - u(4,0,1) <= -0
MCLin8(4,0,1):  61 y(0,4,1) + v(4,0,1) - u(4,0,1) <= 61
MCLin9(4,0,1):  61 y(0,4,1) - u(4,0,1) >= -0
MCLin10(4,0,1):  -63 y(0,4,1) + v(4,0,1) - u(4,0,1) >= -63
MCLinV(0,4,2):  x(0,2) - v(0,4,2) - x(4,2) = 8
MCLinV(4,0,2):  - x(0,2) - v(4,0,2) + x(4,2) = 7
MCLin1(0,4,2):  u(0,4,2) >= -0
MCLin2(0,4,2):  -79 y(4,0,2) - u(0,4,2) <= -0
MCLin3(0,4,2):  45 y(4,0,2) + v(0,4,2) - u(0,4,2) <= 45
MCLin4(0,4,2):  45 y(4,0,2) - u(0,4,2) >= -0
MCLin5(0,4,2):  -79 y(4,0,2) + v(0,4,2) - u(0,4,2) >= -79
MCLin6(4,0,2):  u(4,0,2) >= -0
MCLin7(4,0,2):  -60 y(0,4,2) - u(4,0,2) <= -0
MCLin8(4,0,2):  64 y(0,4,2) + v(4,0,2) - u(4,0,2) <= 64
MCLin9(4,0,2):  64 y(0,4,2) - u(4,0,2) >= -0
MCLin10(4,0,2):  -60 y(0,4,2) + v(4,0,2) - u(4,0,2) >= -60
MCLinV(1,2,0):  x(1,0) - v(1,2,0) - x(2,0) = 5
MCLinV(2,1,0):  - x(1,0) - v(2,1,0) + x(2,0) = 8
MCLin1(1,2,0):  u(1,2,0) >= -0
MCLin2(1,2,0):  -80 y(2,1,0) - u(1,2,0) <= -0
MCLin3(1,2,0):  58 y(2,1,0) + v(1,2,0) - u(1,2,0) <= 58
MCLin4(1,2,0):  58 y(2,1,0) - u(1,2,0) >= -0
MCLin5(1,2,0):  -80 y(2,1,0) + v(1,2,0) - u(1,2,0) >= -80
MCLin6(2,1,0):  u(2,1,0) >= -0
MCLin7(2,1,0):  -71 y(1,2,0) - u(2,1,0) <= -0
MCLin8(2,1,0):  67 y(1,2,0) + v(2,1,0) - u(2,1,0) <= 67
MCLin9(2,1,0):  67 y(1,2,0) - u(2,1,0) >= -0
MCLin10(2,1,0):  -71 y(1,2,0) + v(2,1,0) - u(2,1,0) >= -71
MCLinV(1,2,1):  x(1,1) - v(1,2,1) - x(2,1) = 3
MCLinV(2,1,1):  - x(1,1) - v(2,1,1) + x(2,1) = 1
MCLin1(1,2,1):  u(1,2,1) >= -0
MCLin2(1,2,1):  -62 y(2,1,1) - u(1,2,1) <= -0
MCLin3(1,2,1):  76 y(2,1,1) + v(1,2,1) - u(1,2,1) <= 76
MCLin4(1,2,1):  76 y(2,1,1) - u(1,2,1) >= -0
MCLin5(1,2,1):  -62 y(2,1,1) + v(1,2,1) - u(1,2,1) >= -62
MCLin6(2,1,1):  u(2,1,1) >= -0
MCLin7(2,1,1):  -80 y(1,2,1) - u(2,1,1) <= -0
MCLin8(2,1,1):  58 y(1,2,1) + v(2,1,1) - u(2,1,1) <= 58
MCLin9(2,1,1):  58 y(1,2,1) - u(2,1,1) >= -0
MCLin10(2,1,1):  -80 y(1,2,1) + v(2,1,1) - u(2,1,1) >= -80
MCLinV(1,2,2):  x(1,2) - v(1,2,2) - x(2,2) = 3
MCLinV(2,1,2):  - x(1,2) - v(2,1,2) + x(2,2) = 2
MCLin1(1,2,2):  u(1,2,2) >= -0
MCLin2(1,2,2):  -67 y(2,1,2) - u(1,2,2) <= -0
MCLin3(1,2,2):  71 y(2,1,2) + v(1,2,2) - u(1,2,2) <= 71
MCLin4(1,2,2):  71 y(2,1,2) - u(1,2,2) >= -0
MCLin5(1,2,2):  -67 y(2,1,2) + v(1,2,2) - u(1,2,2) >= -67
MCLin6(2,1,2):  u(2,1,2) >= -0
MCLin7(2,1,2):  -76 y(1,2,2) - u(2,1,2) <= -0
MCLin8(2,1,2):  62 y(1,2,2) + v(2,1,2) - u(2,1,2) <= 62
MCLin9(2,1,2):  62 y(1,2,2) - u(2,1,2) >= -0
MCLin10(2,1,2):  -76 y(1,2,2) + v(2,1,2) - u(2,1,2) >= -76
MCLinV(1,3,0):  x(1,0) - v(1,3,0) - x(3,0) = 8
MCLinV(3,1,0):  - x(1,0) - v(3,1,0) + x(3,0) = 8
MCLin1(1,3,0):  u(1,3,0) >= -0
MCLin2(1,3,0):  -80 y(3,1,0) - u(1,3,0) <= -0
MCLin3(1,3,0):  47 y(3,1,0) + v(1,3,0) - u(1,3,0) <= 47
MCLin4(1,3,0):  47 y(3,1,0) - u(1,3,0) >= -0
MCLin5(1,3,0):  -80 y(3,1,0) + v(1,3,0) - u(1,3,0) >= -80
MCLin6(3,1,0):  u(3,1,0) >= -0
MCLin7(3,1,0):  -63 y(1,3,0) - u(3,1,0) <= -0
MCLin8(3,1,0):  64 y(1,3,0) + v(3,1,0) - u(3,1,0) <= 64
MCLin9(3,1,0):  64 y(1,3,0) - u(3,1,0) >= -0
MCLin10(3,1,0):  -63 y(1,3,0) + v(3,1,0) - u(3,1,0) >= -63
MCLinV(1,3,1):  x(1,1) - v(1,3,1) - x(3,1) = 5
MCLinV(3,1,1):  - x(1,1) - v(3,1,1) + x(3,1) = 1
MCLin1(1,3,1):  u(1,3,1) >= -0
MCLin2(1,3,1):  -53 y(3,1,1) - u(1,3,1) <= -0
MCLin3(1,3,1):  74 y(3,1,1) + v(1,3,1) - u(1,3,1) <= 74
MCLin4(1,3,1):  74 y(3,1,1) - u(1,3,1) >= -0
MCLin5(1,3,1):  -53 y(3,1,1) + v(1,3,1) - u(1,3,1) >= -53
MCLin6(3,1,1):  u(3,1,1) >= -0
MCLin7(3,1,1):  -80 y(1,3,1) - u(3,1,1) <= -0
MCLin8(3,1,1):  47 y(1,3,1) + v(3,1,1) - u(3,1,1) <= 47
MCLin9(3,1,1):  47 y(1,3,1) - u(3,1,1) >= -0
MCLin10(3,1,1):  -80 y(1,3,1) + v(3,1,1) - u(3,1,1) >= -80
MCLinV(1,3,2):  x(1,2) - v(1,3,2) - x(3,2) = 9
MCLinV(3,1,2):  - x(1,2) - v(3,1,2) + x(3,2) = 2
MCLin1(1,3,2):  u(1,3,2) >= -0
MCLin2(1,3,2):  -64 y(3,1,2) - u(1,3,2) <= -0
MCLin3(1,3,2):  63 y(3,1,2) + v(1,3,2) - u(1,3,2) <= 63
MCLin4(1,3,2):  63 y(3,1,2) - u(1,3,2) >= -0
MCLin5(1,3,2):  -64 y(3,1,2) + v(1,3,2) - u(1,3,2) >= -64
MCLin6(3,1,2):  u(3,1,2) >= -0
MCLin7(3,1,2):  -74 y(1,3,2) - u(3,1,2) <= -0
MCLin8(3,1,2):  53 y(1,3,2) + v(3,1,2) - u(3,1,2) <= 53
MCLin9(3,1,2):  53 y(1,3,2) - u(3,1,2) >= -0
MCLin10(3,1,2):  -74 y(1,3,2) + v(3,1,2) - u(3,1,2) >= -74
MCLinV(1,4,0):  x(1,0) - v(1,4,0) - x(4,0) = 6
MCLinV(4,1,0):  - x(1,0) - v(4,1,0) + x(4,0) = 8
MCLin1(1,4,0):  u(1,4,0) >= -0
MCLin2(1,4,0):  -62 y(4,1,0) - u(1,4,0) <= -0
MCLin3(1,4,0):  63 y(4,1,0) + v(1,4,0) - u(1,4,0) <= 63
MCLin4(1,4,0):  63 y(4,1,0) - u(1,4,0) >= -0
MCLin5(1,4,0):  -62 y(4,1,0) + v(1,4,0) - u(1,4,0) >= -62
MCLin6(4,1,0):  u(4,1,0) >= -0
MCLin7(4,1,0):  -77 y(1,4,0) - u(4,1,0) <= -0
MCLin8(4,1,0):  48 y(1,4,0) + v(4,1,0) - u(4,1,0) <= 48
MCLin9(4,1,0):  48 y(1,4,0) - u(4,1,0) >= -0
MCLin10(4,1,0):  -77 y(1,4,0) + v(4,1,0) - u(4,1,0) >= -77
MCLinV(1,4,1):  x(1,1) - v(1,4,1) - x(4,1) = 10
MCLinV(4,1,1):  - x(1,1) - v(4,1,1) + x(4,1) = 1
MCLin1(1,4,1):  u(1,4,1) >= -0
MCLin2(1,4,1):  -62 y(4,1,1) - u(1,4,1) <= -0
MCLin3(1,4,1):  63 y(4,1,1) + v(1,4,1) - u(1,4,1) <= 63
MCLin4(1,4,1):  63 y(4,1,1) - u(1,4,1) >= -0
MCLin5(1,4,1):  -62 y(4,1,1) + v(1,4,1) - u(1,4,1) >= -62
MCLin6(4,1,1):  u(4,1,1) >= -0
MCLin7(4,1,1):  -74 y(1,4,1) - u(4,1,1) <= -0
MCLin8(4,1,1):  51 y(1,4,1) + v(4,1,1) - u(4,1,1) <= 51
MCLin9(4,1,1):  51 y(1,4,1) - u(4,1,1) >= -0
MCLin10(4,1,1):  -74 y(1,4,1) + v(4,1,1) - u(4,1,1) >= -74
MCLinV(1,4,2):  x(1,2) - v(1,4,2) - x(4,2) = 8
MCLinV(4,1,2):  - x(1,2) - v(4,1,2) + x(4,2) = 2
MCLin1(1,4,2):  u(1,4,2) >= -0
MCLin2(1,4,2):  -72 y(4,1,2) - u(1,4,2) <= -0
MCLin3(1,4,2):  53 y(4,1,2) + v(1,4,2) - u(1,4,2) <= 53
MCLin4(1,4,2):  53 y(4,1,2) - u(1,4,2) >= -0
MCLin5(1,4,2):  -72 y(4,1,2) + v(1,4,2) - u(1,4,2) >= -72
MCLin6(4,1,2):  u(4,1,2) >= -0
MCLin7(4,1,2):  -63 y(1,4,2) - u(4,1,2) <= -0
MCLin8(4,1,2):  62 y(1,4,2) + v(4,1,2) - u(4,1,2) <= 62
MCLin9(4,1,2):  62 y(1,4,2) - u(4,1,2) >= -0
MCLin10(4,1,2):  -63 y(1,4,2) + v(4,1,2) - u(4,1,2) >= -63
MCLinV(2,3,0):  x(2,0) - v(2,3,0) - x(3,0) = 8
MCLinV(3,2,0):  - x(2,0) - v(3,2,0) + x(3,0) = 5
MCLin1(2,3,0):  u(2,3,0) >= -0
MCLin2(2,3,0):  -74 y(3,2,0) - u(2,3,0) <= -0
MCLin3(2,3,0):  53 y(3,2,0) + v(2,3,0) - u(2,3,0) <= 53
MCLin4(2,3,0):  53 y(3,2,0) - u(2,3,0) >= -0
MCLin5(2,3,0):  -74 y(3,2,0) + v(2,3,0) - u(2,3,0) >= -74
MCLin6(3,2,0):  u(3,2,0) >= -0
MCLin7(3,2,0):  -66 y(2,3,0) - u(3,2,0) <= -0
MCLin8(3,2,0):  61 y(2,3,0) + v(3,2,0) - u(3,2,0) <= 61
MCLin9(3,2,0):  61 y(2,3,0) - u(3,2,0) >= -0
MCLin10(3,2,0):  -66 y(2,3,0) + v(3,2,0) - u(3,2,0) >= -66
MCLinV(2,3,1):  x(2,1) - v(2,3,1) - x(3,1) = 5
MCLinV(3,2,1):  - x(2,1) - v(3,2,1) + x(3,1) = 3
MCLin1(2,3,1):  u(2,3,1) >= -0
MCLin2(2,3,1):  -63 y(3,2,1) - u(2,3,1) <= -0
MCLin3(2,3,1):  64 y(3,2,1) + v(2,3,1) - u(2,3,1) <= 64
MCLin4(2,3,1):  64 y(3,2,1) - u(2,3,1) >= -0
MCLin5(2,3,1):  -63 y(3,2,1) + v(2,3,1) - u(2,3,1) >= -63
MCLin6(3,2,1):  u(3,2,1) >= -0
MCLin7(3,2,1):  -72 y(2,3,1) - u(3,2,1) <= -0
MCLin8(3,2,1):  55 y(2,3,1) + v(3,2,1) - u(3,2,1) <= 55
MCLin9(3,2,1):  55 y(2,3,1) - u(3,2,1) >= -0
MCLin10(3,2,1):  -72 y(2,3,1) + v(3,2,1) - u(3,2,1) >= -72
MCLinV(2,3,2):  x(2,2) - v(2,3,2) - x(3,2) = 9
MCLinV(3,2,2):  - x(2,2) - v(3,2,2) + x(3,2) = 3
MCLin1(2,3,2):  u(2,3,2) >= -0
MCLin2(2,3,2):  -69 y(3,2,2) - u(2,3,2) <= -0
MCLin3(2,3,2):  58 y(3,2,2) + v(2,3,2) - u(2,3,2) <= 58
MCLin4(2,3,2):  58 y(3,2,2) - u(2,3,2) >= -0
MCLin5(2,3,2):  -69 y(3,2,2) + v(2,3,2) - u(2,3,2) >= -69
MCLin6(3,2,2):  u(3,2,2) >= -0
MCLin7(3,2,2):  -70 y(2,3,2) - u(3,2,2) <= -0
MCLin8(3,2,2):  57 y(2,3,2) + v(3,2,2) - u(3,2,2) <= 57
MCLin9(3,2,2):  57 y(2,3,2) - u(3,2,2) >= -0
MCLin10(3,2,2):  -70 y(2,3,2) + v(3,2,2) - u(3,2,2) >= -70
MCLinV(2,4,0):  x(2,0) - v(2,4,0) - x(4,0) = 6
MCLinV(4,2,0):  - x(2,0) - v(4,2,0) + x(4,0) = 5
MCLin1(2,4,0):  u(2,4,0) >= -0
MCLin2(2,4,0):  -56 y(4,2,0) - u(2,4,0) <= -0
MCLin3(2,4,0):  69 y(4,2,0) + v(2,4,0) - u(2,4,0) <= 69
MCLin4(2,4,0):  69 y(4,2,0) - u(2,4,0) >= -0
MCLin5(2,4,0):  -56 y(4,2,0) + v(2,4,0) - u(2,4,0) >= -56
MCLin6(4,2,0):  u(4,2,0) >= -0
MCLin7(4,2,0):  -80 y(2,4,0) - u(4,2,0) <= -0
MCLin8(4,2,0):  45 y(2,4,0) + v(4,2,0) - u(4,2,0) <= 45
MCLin9(4,2,0):  45 y(2,4,0) - u(4,2,0) >= -0
MCLin10(4,2,0):  -80 y(2,4,0) + v(4,2,0) - u(4,2,0) >= -80
MCLinV(2,4,1):  x(2,1) - v(2,4,1) - x(4,1) = 10
MCLinV(4,2,1):  - x(2,1) - v(4,2,1) + x(4,1) = 3
MCLin1(2,4,1):  u(2,4,1) >= -0
MCLin2(2,4,1):  -72 y(4,2,1) - u(2,4,1) <= -0
MCLin3(2,4,1):  53 y(4,2,1) + v(2,4,1) - u(2,4,1) <= 53
MCLin4(2,4,1):  53 y(4,2,1) - u(2,4,1) >= -0
MCLin5(2,4,1):  -72 y(4,2,1) + v(2,4,1) - u(2,4,1) >= -72
MCLin6(4,2,1):  u(4,2,1) >= -0
MCLin7(4,2,1):  -66 y(2,4,1) - u(4,2,1) <= -0
MCLin8(4,2,1):  59 y(2,4,1) + v(4,2,1) - u(4,2,1) <= 59
MCLin9(4,2,1):  59 y(2,4,1) - u(4,2,1) >= -0
MCLin10(4,2,1):  -66 y(2,4,1) + v(4,2,1) - u(4,2,1) >= -66
MCLinV(2,4,2):  x(2,2) - v(2,4,2) - x(4,2) = 8
MCLinV(4,2,2):  - x(2,2) - v(4,2,2) + x(4,2) = 3
MCLin1(2,4,2):  u(2,4,2) >= -0
MCLin2(2,4,2):  -77 y(4,2,2) - u(2,4,2) <= -0
MCLin3(2,4,2):  48 y(4,2,2) + v(2,4,2) - u(2,4,2) <= 48
MCLin4(2,4,2):  48 y(4,2,2) - u(2,4,2) >= -0
MCLin5(2,4,2):  -77 y(4,2,2) + v(2,4,2) - u(2,4,2) >= -77
MCLin6(4,2,2):  u(4,2,2) >= -0
MCLin7(4,2,2):  -59 y(2,4,2) - u(4,2,2) <= -0
MCLin8(4,2,2):  66 y(2,4,2) + v(4,2,2) - u(4,2,2) <= 66
MCLin9(4,2,2):  66 y(2,4,2) - u(4,2,2) >= -0
MCLin10(4,2,2):  -59 y(2,4,2) + v(4,2,2) - u(4,2,2) >= -59
MCLinV(3,4,0):  x(3,0) - v(3,4,0) - x(4,0) = 6
MCLinV(4,3,0):  - x(3,0) - v(4,3,0) + x(4,0) = 8
MCLin1(3,4,0):  u(3,4,0) >= -0
MCLin2(3,4,0):  -48 y(4,3,0) - u(3,4,0) <= -0
MCLin3(3,4,0):  66 y(4,3,0) + v(3,4,0) - u(3,4,0) <= 66
MCLin4(3,4,0):  66 y(4,3,0) - u(3,4,0) >= -0
MCLin5(3,4,0):  -48 y(4,3,0) + v(3,4,0) - u(3,4,0) >= -48
MCLin6(4,3,0):  u(4,3,0) >= -0
MCLin7(4,3,0):  -80 y(3,4,0) - u(4,3,0) <= -0
MCLin8(4,3,0):  34 y(3,4,0) + v(4,3,0) - u(4,3,0) <= 34
MCLin9(4,3,0):  34 y(3,4,0) - u(4,3,0) >= -0
MCLin10(4,3,0):  -80 y(3,4,0) + v(4,3,0) - u(4,3,0) >= -80
MCLinV(3,4,1):  x(3,1) - v(3,4,1) - x(4,1) = 10
MCLinV(4,3,1):  - x(3,1) - v(4,3,1) + x(4,1) = 5
MCLin1(3,4,1):  u(3,4,1) >= -0
MCLin2(3,4,1):  -72 y(4,3,1) - u(3,4,1) <= -0
MCLin3(3,4,1):  42 y(4,3,1) + v(3,4,1) - u(3,4,1) <= 42
MCLin4(3,4,1):  42 y(4,3,1) - u(3,4,1) >= -0
MCLin5(3,4,1):  -72 y(4,3,1) + v(3,4,1) - u(3,4,1) >= -72
MCLin6(4,3,1):  u(4,3,1) >= -0
MCLin7(4,3,1):  -57 y(3,4,1) - u(4,3,1) <= -0
MCLin8(4,3,1):  57 y(3,4,1) + v(4,3,1) - u(4,3,1) <= 57
MCLin9(4,3,1):  57 y(3,4,1) - u(4,3,1) >= -0
MCLin10(4,3,1):  -57 y(3,4,1) + v(4,3,1) - u(4,3,1) >= -57
MCLinV(3,4,2):  x(3,2) - v(3,4,2) - x(4,2) = 8
MCLinV(4,3,2):  - x(3,2) - v(4,3,2) + x(4,2) = 9
MCLin1(3,4,2):  u(3,4,2) >= -0
MCLin2(3,4,2):  -75 y(4,3,2) - u(3,4,2) <= -0
MCLin3(3,4,2):  39 y(4,3,2) + v(3,4,2) - u(3,4,2) <= 39
MCLin4(3,4,2):  39 y(4,3,2) - u(3,4,2) >= -0
MCLin5(3,4,2):  -75 y(4,3,2) + v(3,4,2) - u(3,4,2) >= -75
MCLin6(4,3,2):  u(4,3,2) >= -0
MCLin7(4,3,2):  -56 y(3,4,2) - u(4,3,2) <= -0
MCLin8(4,3,2):  58 y(3,4,2) + v(4,3,2) - u(4,3,2) <= 58
MCLin9(4,3,2):  58 y(3,4,2) - u(4,3,2) >= -0
MCLin10(4,3,2):  -56 y(3,4,2) + v(4,3,2) - u(4,3,2) >= -56
makespan(0):  C - x(0,0) >= 4
makespan(1):  C - x(1,1) >= 1
makespan(2):  C - x(2,0) >= 5
makespan(3):  C - x(3,0) >= 8
makespan(4):  C - x(4,2) >= 8
Bounds
 0 <= C <= 80
 8 <= x(0,0) <= 76
 0 <= y(0,1,0) <= 1
 0 <= y(1,0,0) <= 1
 -69 <= v(0,1,0) <= 68
 -80 <= v(1,0,0) <= 57
 -800 <= u(0,1,0)
 -800 <= u(1,0,0)
 0 <= y(0,2,0) <= 1
 0 <= y(2,0,0) <= 1
 -72 <= v(0,2,0) <= 65
 -74 <= v(2,0,0) <= 63
 -800 <= u(0,2,0)
 -800 <= u(2,0,0)
 0 <= y(0,3,0) <= 1
 0 <= y(3,0,0) <= 1
 -72 <= v(0,3,0) <= 54
 -66 <= v(3,0,0) <= 60
 -800 <= u(0,3,0)
 -800 <= u(3,0,0)
 0 <= y(0,4,0) <= 1
 0 <= y(4,0,0) <= 1
 -54 <= v(0,4,0) <= 70
 -80 <= v(4,0,0) <= 44
 -800 <= u(0,4,0)
 -800 <= u(4,0,0)
 0 <= x(1,0) <= 69
 0 <= y(1,2,0) <= 1
 0 <= y(2,1,0) <= 1
 -80 <= v(1,2,0) <= 58
 -71 <= v(2,1,0) <= 67
 -800 <= u(1,2,0)
 -800 <= u(2,1,0)
 0 <= y(1,3,0) <= 1
 0 <= y(3,1,0) <= 1
 -80 <= v(1,3,0) <= 47
 -63 <= v(3,1,0) <= 64
 -800 <= u(1,3,0)
 -800 <= u(3,1,0)
 0 <= y(1,4,0) <= 1
 0 <= y(4,1,0) <= 1
 -62 <= v(1,4,0) <= 63
 -77 <= v(4,1,0) <= 48
 -800 <= u(1,4,0)
 -800 <= u(4,1,0)
 6 <= x(2,0) <= 75
 0 <= y(2,3,0) <= 1
 0 <= y(3,2,0) <= 1
 -74 <= v(2,3,0) <= 53
 -66 <= v(3,2,0) <= 61
 -800 <= u(2,3,0)
 -800 <= u(3,2,0)
 0 <= y(2,4,0) <= 1
 0 <= y(4,2,0) <= 1
 -56 <= v(2,4,0) <= 69
 -80 <= v(4,2,0) <= 45
 -800 <= u(2,4,0)
 -800 <= u(4,2,0)
 14 <= x(3,0) <= 72
 0 <= y(3,4,0) <= 1
 0 <= y(4,3,0) <= 1
 -48 <= v(3,4,0) <= 66
 -80 <= v(4,3,0) <= 34
 -800 <= u(3,4,0)
 -800 <= u(4,3,0)
 0 <= x(4,0) <= 56
 0 <= x(0,1) <= 68
 0 <= y(0,1,1) <= 1
 0 <= y(1,0,1) <= 1
 -80 <= v(0,1,1) <= 57
 -59 <= v(1,0,1) <= 78
 -800 <= u(0,1,1)
 -800 <= u(1,0,1)
 0 <= y(0,2,1) <= 1
 0 <= y(2,0,1) <= 1
 -72 <= v(0,2,1) <= 65
 -69 <= v(2,0,1) <= 68
 -800 <= u(0,2,1)
 -800 <= u(2,0,1)
 0 <= y(0,3,1) <= 1
 0 <= y(3,0,1) <= 1
 -63 <= v(0,3,1) <= 63
 -69 <= v(3,0,1) <= 57
 -800 <= u(0,3,1)
 -800 <= u(3,0,1)
 0 <= y(0,4,1) <= 1
 0 <= y(4,0,1) <= 1
 -72 <= v(0,4,1) <= 52
 -63 <= v(4,0,1) <= 61
 -800 <= u(0,4,1)
 -800 <= u(4,0,1)
 10 <= x(1,1) <= 79
 0 <= y(1,2,1) <= 1
 0 <= y(2,1,1) <= 1
 -62 <= v(1,2,1) <= 76
 -80 <= v(2,1,1) <= 58
 -800 <= u(1,2,1)
 -800 <= u(2,1,1)
 0 <= y(1,3,1) <= 1
 0 <= y(3,1,1) <= 1
 -53 <= v(1,3,1) <= 74
 -80 <= v(3,1,1) <= 47
 -800 <= u(1,3,1)
 -800 <= u(3,1,1)
 0 <= y(1,4,1) <= 1
 0 <= y(4,1,1) <= 1
 -62 <= v(1,4,1) <= 63
 -74 <= v(4,1,1) <= 51
 -800 <= u(1,4,1)
 -800 <= u(4,1,1)
 0 <= x(2,1) <= 69
 0 <= y(2,3,1) <= 1
 0 <= y(3,2,1) <= 1
 -63 <= v(2,3,1) <= 64
 -72 <= v(3,2,1) <= 55
 -800 <= u(2,3,1)
 -800 <= u(3,2,1)
 0 <= y(2,4,1) <= 1
 0 <= y(4,2,1) <= 1
 -72 <= v(2,4,1) <= 53
 -66 <= v(4,2,1) <= 59
 -800 <= u(2,4,1)
 -800 <= u(4,2,1)
 0 <= x(3,1) <= 58
 0 <= y(3,4,1) <= 1
 0 <= y(4,3,1) <= 1
 -72 <= v(3,4,1) <= 42
 -57 <= v(4,3,1) <= 57
 -800 <= u(3,4,1)
 -800 <= u(4,3,1)
 6 <= x(4,1) <= 62
 1 <= x(0,2) <= 69
 0 <= y(0,1,2) <= 1
 0 <= y(1,0,2) <= 1
 -78 <= v(0,1,2) <= 59
 -68 <= v(1,0,2) <= 69
 -800 <= u(0,1,2)
 -800 <= u(1,0,2)
 0 <= y(0,2,2) <= 1
 0 <= y(2,0,2) <= 1
 -74 <= v(0,2,2) <= 63
 -73 <= v(2,0,2) <= 64
 -800 <= u(0,2,2)
 -800 <= u(2,0,2)
 0 <= y(0,3,2) <= 1
 0 <= y(3,0,2) <= 1
 -71 <= v(0,3,2) <= 55
 -71 <= v(3,0,2) <= 55
 -800 <= u(0,3,2)
 -800 <= u(3,0,2)
 0 <= y(0,4,2) <= 1
 0 <= y(4,0,2) <= 1
 -79 <= v(0,4,2) <= 45
 -60 <= v(4,0,2) <= 64
 -800 <= u(0,4,2)
 -800 <= u(4,0,2)
 8 <= x(1,2) <= 77
 0 <= y(1,2,2) <= 1
 0 <= y(2,1,2) <= 1
 -67 <= v(1,2,2) <= 71
 -76 <= v(2,1,2) <= 62
 -800 <= u(1,2,2)
 -800 <= u(2,1,2)
 0 <= y(1,3,2) <= 1
 0 <= y(3,1,2) <= 1
 -64 <= v(1,3,2) <= 63
 -74 <= v(3,1,2) <= 53
 -800 <= u(1,3,2)
 -800 <= u(3,1,2)
 0 <= y(1,4,2) <= 1
 0 <= y(4,1,2) <= 1
 -72 <= v(1,4,2) <= 53
 -63 <= v(4,1,2) <= 62
 -800 <= u(1,4,2)
 -800 <= u(4,1,2)
 3 <= x(2,2) <= 72
 0 <= y(2,3,2) <= 1
 0 <= y(3,2,2) <= 1
 -69 <= v(2,3,2) <= 58
 -70 <= v(3,2,2) <= 57
 -800 <= u(2,3,2)
 -800 <= u(3,2,2)
 0 <= y(2,4,2) <= 1
 0 <= y(4,2,2) <= 1
 -77 <= v(2,4,2) <= 48
 -59 <= v(4,2,2) <= 66
 -800 <= u(2,4,2)
 -800 <= u(4,2,2)
 5 <= x(3,2) <= 63
 0 <= y(3,4,2) <= 1
 0 <= y(4,3,2) <= 1
 -75 <= v(3,4,2) <= 39
 -56 <= v(4,3,2) <= 58
 -800 <= u(3,4,2)
 -800 <= u(4,3,2)
 16 <= x(4,2) <= 72
Integers
C x(0,0) y(0,1,0) y(1,0,0) v(0,1,0) v(1,0,0) u(0,1,0) u(1,0,0) y(0,2,0) y(2,0,0) 
v(0,2,0) v(2,0,0) u(0,2,0) u(2,0,0) y(0,3,0) y(3,0,0) v(0,3,0) v(3,0,0) u(0,3,0) u(3,0,0) 
y(0,4,0) y(4,0,0) v(0,4,0) v(4,0,0) u(0,4,0) u(4,0,0) x(1,0) y(1,2,0) y(2,1,0) v(1,2,0) 
v(2,1,0) u(1,2,0) u(2,1,0) y(1,3,0) y(3,1,0) v(1,3,0) v(3,1,0) u(1,3,0) u(3,1,0) y(1,4,0) 
y(4,1,0) v(1,4,0) v(4,1,0) u(1,4,0) u(4,1,0) x(2,0) y(2,3,0) y(3,2,0) v(2,3,0) v(3,2,0) 
u(2,3,0) u(3,2,0) y(2,4,0) y(4,2,0) v(2,4,0) v(4,2,0) u(2,4,0) u(4,2,0) x(3,0) y(3,4,0) 
y(4,3,0) v(3,4,0) v(4,3,0) u(3,4,0) u(4,3,0) x(4,0) x(0,1) y(0,1,1) y(1,0,1) v(0,1,1) 
v(1,0,1) u(0,1,1) u(1,0,1) y(0,2,1) y(2,0,1) v(0,2,1) v(2,0,1) u(0,2,1) u(2,0,1) y(0,3,1) 
y(3,0,1) v(0,3,1) v(3,0,1) u(0,3,1) u(3,0,1) y(0,4,1) y(4,0,1) v(0,4,1) v(4,0,1) u(0,4,1) 
u(4,0,1) x(1,1) y(1,2,1) y(2,1,1) v(1,2,1) v(2,1,1) u(1,2,1) u(2,1,1) y(1,3,1) y(3,1,1) 
v(1,3,1) v(3,1,1) u(1,3,1) u(3,1,1) y(1,4,1) y(4,1,1) v(1,4,1) v(4,1,1) u(1,4,1) u(4,1,1) 
x(2,1) y(2,3,1) y(3,2,1) v(2,3,1) v(3,2,1) u(2,3,1) u(3,2,1) y(2,4,1) y(4,2,1) v(2,4,1) 
v(4,2,1) u(2,4,1) u(4,2,1) x(3,1) y(3,4,1) y(4,3,1) v(3,4,1) v(4,3,1) u(3,4,1) u(4,3,1) 
x(4,1) x(0,2) y(0,1,2) y(1,0,2) v(0,1,2) v(1,0,2) u(0,1,2) u(1,0,2) y(0,2,2) y(2,0,2) 
v(0,2,2) v(2,0,2) u(0,2,2) u(2,0,2) y(0,3,2) y(3,0,2) v(0,3,2) v(3,0,2) u(0,3,2) u(3,0,2) 
y(0,4,2) y(4,0,2) v(0,4,2) v(4,0,2) u(0,4,2) u(4,0,2) x(1,2) y(1,2,2) y(2,1,2) v(1,2,2) 
v(2,1,2) u(1,2,2) u(2,1,2) y(1,3,2) y(3,1,2) v(1,3,2) v(3,1,2) u(1,3,2) u(3,1,2) y(1,4,2) 
y(4,1,2) v(1,4,2) v(4,1,2) u(1,4,2) u(4,1,2) x(2,2) y(2,3,2) y(3,2,2) v(2,3,2) v(3,2,2) 
u(2,3,2) u(3,2,2) y(2,4,2) y(4,2,2) v(2,4,2) v(4,2,2) u(2,4,2) u(4,2,2) x(3,2) y(3,4,2) 
y(4,3,2) v(3,4,2) v(4,3,2) u(3,4,2) u(4,3,2) x(4,2) 
End
